p edge 40 381 15
v 2 5 8
v 2 19 29
v 3 6 12 26
v 3 9 16 33
v 3 14 25 31
v 4 13 23 36 39
v 2 18 35
v 1 37
v 3 2 4 27
v 3 10 28 32
v 2 15 34
v 4 7 22 38 40
v 3 20 21 30
v 1 3
v 4 1 11 17 24
e 1 2
e 1 3
e 1 4
e 1 5
e 1 7
e 1 8
e 1 10
e 1 12
e 1 13
e 1 14
e 1 15
e 1 16
e 1 17
e 1 18
e 1 23
e 1 26
e 1 28
e 1 32
e 1 36
e 1 37
e 1 38
e 1 39
e 1 40
e 2 3
e 2 4
e 2 9
e 2 16
e 2 17
e 2 19
e 2 20
e 2 21
e 2 23
e 2 24
e 2 25
e 2 27
e 2 29
e 2 30
e 2 31
e 2 32
e 2 33
e 2 34
e 2 36
e 2 38
e 2 39
e 2 40
e 3 4
e 3 8
e 3 9
e 3 15
e 3 21
e 3 26
e 3 27
e 3 33
e 3 34
e 3 35
e 3 36
e 3 40
e 4 7
e 4 8
e 4 9
e 4 13
e 4 14
e 4 16
e 4 18
e 4 20
e 4 21
e 4 24
e 4 25
e 4 32
e 4 36
e 4 37
e 5 7
e 5 8
e 5 10
e 5 11
e 5 14
e 5 15
e 5 17
e 5 18
e 5 20
e 5 21
e 5 24
e 5 26
e 5 27
e 5 30
e 5 32
e 5 33
e 5 35
e 5 36
e 5 37
e 5 39
e 5 40
e 6 8
e 6 9
e 6 10
e 6 11
e 6 13
e 6 15
e 6 16
e 6 19
e 6 20
e 6 22
e 6 23
e 6 25
e 6 27
e 6 28
e 6 29
e 6 30
e 6 33
e 6 34
e 6 35
e 6 36
e 6 38
e 6 40
e 7 8
e 7 10
e 7 11
e 7 12
e 7 17
e 7 18
e 7 19
e 7 20
e 7 26
e 7 29
e 7 31
e 7 32
e 7 33
e 7 34
e 7 35
e 7 36
e 7 37
e 7 40
e 8 9
e 8 10
e 8 11
e 8 12
e 8 14
e 8 20
e 8 22
e 8 23
e 8 24
e 8 25
e 8 26
e 8 32
e 8 33
e 8 35
e 8 38
e 9 10
e 9 13
e 9 16
e 9 17
e 9 21
e 9 22
e 9 23
e 9 28
e 9 30
e 9 31
e 9 32
e 9 33
e 9 36
e 9 38
e 9 40
e 10 12
e 10 13
e 10 15
e 10 16
e 10 17
e 10 20
e 10 21
e 10 23
e 10 25
e 10 28
e 10 30
e 10 31
e 10 33
e 10 37
e 10 38
e 10 39
e 10 40
e 11 14
e 11 17
e 11 18
e 11 21
e 11 22
e 11 23
e 11 27
e 11 29
e 11 30
e 11 32
e 11 34
e 11 35
e 11 36
e 11 38
e 11 40
e 12 13
e 12 18
e 12 20
e 12 21
e 12 22
e 12 24
e 12 30
e 12 34
e 12 35
e 12 39
e 12 40
e 13 14
e 13 21
e 13 22
e 13 24
e 13 27
e 13 32
e 13 33
e 13 36
e 13 37
e 13 38
e 13 39
e 14 15
e 14 20
e 14 23
e 14 27
e 14 32
e 14 34
e 14 35
e 14 36
e 14 37
e 14 38
e 15 19
e 15 20
e 15 21
e 15 22
e 15 23
e 15 25
e 15 29
e 15 31
e 15 33
e 15 34
e 15 37
e 15 38
e 16 17
e 16 18
e 16 20
e 16 21
e 16 24
e 16 25
e 16 26
e 16 28
e 16 31
e 16 32
e 16 34
e 16 36
e 16 39
e 17 18
e 17 20
e 17 22
e 17 23
e 17 24
e 17 25
e 17 26
e 17 30
e 17 34
e 17 36
e 17 37
e 17 38
e 17 39
e 18 19
e 18 20
e 18 21
e 18 22
e 18 23
e 18 26
e 18 27
e 18 28
e 18 32
e 18 33
e 18 34
e 18 38
e 18 40
e 19 21
e 19 25
e 19 26
e 19 28
e 19 30
e 19 31
e 19 33
e 19 39
e 20 21
e 20 23
e 20 29
e 20 30
e 20 31
e 20 32
e 20 33
e 20 34
e 20 35
e 20 39
e 21 22
e 21 23
e 21 24
e 21 26
e 21 27
e 21 28
e 21 30
e 21 33
e 21 38
e 22 26
e 22 28
e 22 31
e 22 32
e 22 35
e 22 36
e 22 38
e 22 40
e 23 26
e 23 27
e 23 28
e 23 29
e 23 30
e 23 34
e 23 35
e 23 39
e 23 40
e 24 25
e 24 26
e 24 29
e 24 30
e 24 33
e 24 34
e 24 35
e 24 37
e 24 38
e 24 39
e 24 40
e 25 32
e 25 33
e 25 34
e 25 35
e 25 36
e 25 38
e 25 39
e 26 27
e 26 31
e 26 34
e 26 35
e 26 38
e 26 40
e 27 28
e 27 35
e 27 39
e 27 40
e 28 31
e 28 35
e 28 37
e 28 38
e 28 40
e 29 30
e 29 33
e 29 35
e 29 37
e 30 33
e 30 34
e 30 36
e 30 39
e 30 40
e 31 32
e 31 33
e 31 36
e 32 33
e 32 34
e 32 35
e 32 36
e 32 40
e 33 35
e 33 36
e 33 38
e 33 39
e 34 35
e 34 38
e 35 38
e 36 37
e 36 39
e 36 40
